Tried aggregator 2 times.
MIP Presolve eliminated 9 rows and 4 columns.
MIP Presolve modified 66 coefficients.
Aggregator did 66 substitutions.
Reduced MIP has 339 rows, 310 columns, and 837 nonzeros.
Reduced MIP has 183 binaries, 13 generals, 0 SOSs, and 60 indicators.
Presolve time = 0.00 sec. (0.72 ticks)
Found incumbent of value 12.000000 after 0.01 sec. (1.27 ticks)
Probing fixed 18 vars, tightened 66 bounds.
Probing time = 0.00 sec. (1.37 ticks)
Tried aggregator 3 times.
MIP Presolve eliminated 29 rows and 26 columns.
MIP Presolve modified 108 coefficients.
Aggregator did 106 substitutions.
Reduced MIP has 204 rows, 178 columns, and 597 nonzeros.
Reduced MIP has 132 binaries, 46 generals, 0 SOSs, and 48 indicators.
Presolve time = 0.00 sec. (1.15 ticks)
Probing time = 0.00 sec. (0.47 ticks)
Tried aggregator 1 time.
Reduced MIP has 204 rows, 178 columns, and 597 nonzeros.
Reduced MIP has 132 binaries, 46 generals, 0 SOSs, and 48 indicators.
Presolve time = 0.00 sec. (0.30 ticks)
Probing time = 0.00 sec. (0.47 ticks)
Clique table members: 303.
MIP emphasis: balance optimality and feasibility.
MIP search method: dynamic search.
Parallel mode: deterministic, using up to 4 threads.
Root relaxation solution time = 0.00 sec. (0.45 ticks)

        Nodes                                         Cuts/
   Node  Left     Objective  IInf  Best Integer    Best Bound    ItCnt     Gap

*     0+    0                           12.0000        5.0000       54   58.33%
      0     0        5.0000    64       12.0000        5.0000       54   58.33%
      0     0        5.0000    21       12.0000       Cuts: 3       69   58.33%
*     0+    0                            6.0000        5.0000       69   16.67%
      0     0        5.0000    65        6.0000      Cuts: 29      105   16.67%
      0     0        5.0000    15        6.0000     Covers: 1      106   16.67%
*     0+    0                            5.0000        5.0000      106    0.00%
      0     0        cutoff              5.0000        5.0000      106    0.00%
Elapsed time = 0.06 sec. (16.97 ticks, tree = 0.00 MB, solutions = 3)

Clique cuts applied:  1
Cover cuts applied:  1
Implied bound cuts applied:  1
Gomory fractional cuts applied:  1

Root node processing (before b&c):
  Real time             =    0.06 sec. (16.98 ticks)
Parallel b&c, 4 threads:
  Real time             =    0.00 sec. (0.00 ticks)
  Sync time (average)   =    0.00 sec.
  Wait time (average)   =    0.00 sec.
                          ------------
Total (root+branch&cut) =    0.06 sec. (16.98 ticks)
